HFSDDW
20	6	2
0	75	1	68
0	9	1	35
0	3	1	35
0	92	1	58
0	44	1	43
0	10	1	2
0	65	1	38
0	8	1	71
0	11	1	3
0	80	1	30
0	81	1	70
0	15	1	83
0	81	1	44
0	33	1	80
0	60	1	58
0	39	1	85
0	16	1	33
0	44	1	76
0	12	1	2
0	89	1	26
LBCmax: 320
RELDUE
-1	175	1	2
-1	117	9	8
-1	290	1	3
-1	125	8	3
-1	213	9	3
-1	42	6	1
-1	52	2	5
-1	297	8	5
-1	191	9	8
-1	330	3	7
-1	224	4	5
-1	261	3	6
-1	243	9	7
-1	173	2	7
-1	84	2	4
-1	47	3	8
-1	203	5	3
-1	114	3	3
-1	206	3	9
-1	219	3	3
DDW
168	182
99	135
238	342
120	130
198	228
37	47
46	58
288	306
168	214
287	373
217	231
224	298
194	292
145	201
80	88
42	52
168	238
106	122
169	243
201	237
